p wcnf 24 66 117
1 1 0
1 2 0
1 3 0
1 4 0
1 5 0
1 6 0
1 7 0
1 8 0
1 9 0
1 10 0
1 11 0
1 12 0
1 13 0
1 14 0
1 15 0
1 16 0
10 -1 -3 -6 -7 0
10 -9 -11 -14 -15 0
10 -1 -3 -5 -7 0
10 -9 -11 -13 -15 0
10 -1 -4 -5 -7 0
10 -9 -12 -13 -15 0
10 17 18 0
10 19 20 0
10 21 22 0
10 23 24 0
117 1 2 0
117 3 4 0
117 5 6 0
117 7 8 0
117 9 10 0
117 11 12 0
117 13 14 0
117 15 16 0
117 1 -17 0
117 3 -17 0
117 6 -17 0
117 8 -17 0
117 9 -18 0
117 11 -18 0
117 14 -18 0
117 16 -18 0
117 2 -19 0
117 3 -19 0
117 5 -19 0
117 8 -19 0
117 10 -20 0
117 11 -20 0
117 13 -20 0
117 16 -20 0
117 2 -21 0
117 4 -21 0
117 6 -21 0
117 8 -21 0
117 10 -22 0
117 12 -22 0
117 14 -22 0
117 16 -22 0
117 1 -23 0
117 4 -23 0
117 5 -23 0
117 8 -23 0
117 9 -24 0
117 12 -24 0
117 13 -24 0
117 16 -24 0
